
Gurobi 9.0.3 (linux64, Matlab) logging started Tue Oct 13 11:38:15 2020


Gurobi 9.0.3 (linux64, Matlab) logging started Tue Oct 13 11:38:16 2020


Gurobi 9.0.3 (linux64, Matlab) logging started Tue Oct 13 11:50:56 2020


Gurobi 9.0.3 (linux64, Matlab) logging started Tue Oct 13 11:50:56 2020


Gurobi 9.0.3 (linux64, Matlab) logging started Tue Oct 13 11:51:05 2020


Gurobi 9.0.3 (linux64, Matlab) logging started Tue Oct 13 11:51:05 2020


Gurobi 9.0.3 (linux64, Matlab) logging started Tue Oct 13 12:14:55 2020


Gurobi 9.0.3 (linux64, Matlab) logging started Tue Oct 13 12:14:55 2020


Gurobi 9.0.3 (linux64, Matlab) logging started Tue Oct 13 12:17:59 2020


Gurobi 9.0.3 (linux64, Matlab) logging started Tue Oct 13 12:17:59 2020


Gurobi 9.0.3 (linux64, Matlab) logging started Tue Oct 13 12:17:59 2020


Gurobi 9.0.3 (linux64, Matlab) logging started Tue Oct 13 12:17:59 2020


Gurobi 9.0.3 (linux64, Matlab) logging started Tue Oct 13 12:20:05 2020


Gurobi 9.0.3 (linux64, Matlab) logging started Tue Oct 13 12:20:05 2020

